(set-info :original "/tmp/sea-Y8TGZy/eureka_01_false-unreach-call.pp.ms.o.bc")
(set-info :authors "SeaHorn v.0.1.0-rc3")
(declare-rel verifier.error (Bool Bool Bool ))
(declare-rel __VERIFIER_assert@_1 ((Array Int Int) (Array Int Int) (Array Int Int) (Array Int Int) Int ))
(declare-rel __VERIFIER_assert@_call5 ((Array Int Int) (Array Int Int) (Array Int Int) (Array Int Int) Int ))
(declare-rel __VERIFIER_assert (Bool Bool Bool (Array Int Int) (Array Int Int) (Array Int Int) (Array Int Int) (Array Int Int) Int ))
(declare-rel main@entry ((Array Int Int) (Array Int Int) (Array Int Int) (Array Int Int) Int ))
(declare-rel main@_bb (Int (Array Int Int) Int (Array Int Int) Int Int (Array Int Int) Int (Array Int Int) Int (Array Int Int) Int Int ))
(declare-rel main@_bb9 (Int (Array Int Int) Int (Array Int Int) Int (Array Int Int) Int (Array Int Int) Int (Array Int Int) Int Int ))
(declare-rel main@_bb15 (Int (Array Int Int) Int (Array Int Int) Int (Array Int Int) Int (Array Int Int) (Array Int Int) Int Int Int ))
(declare-rel main@_bb18 (Int (Array Int Int) (Array Int Int) (Array Int Int) (Array Int Int) (Array Int Int) Int Int ))
(declare-rel main@verifier.error.split ())
(declare-rel main@_bb10 (Int (Array Int Int) Int (Array Int Int) Int (Array Int Int) Int (Array Int Int) Int (Array Int Int) Int Int Int ))
(declare-var __VERIFIER_assert@%_4_0 (Array Int Int) )
(declare-var __VERIFIER_assert@%_call_0 (Array Int Int) )
(declare-var __VERIFIER_assert@%_3_0 (Array Int Int) )
(declare-var __VERIFIER_assert@%_2_0 (Array Int Int) )
(declare-var __VERIFIER_assert@%_call4_0 Bool )
(declare-var __VERIFIER_assert@%cond_0 Int )
(declare-var __VERIFIER_assert@_1_0 Bool )
(declare-var __VERIFIER_assert@_call5_0 Bool )
(declare-var main@%_17_0 Int )
(declare-var main@%_20_0 Int )
(declare-var main@%_21_0 Int )
(declare-var main@%shadow.mem3.1_2 (Array Int Int) )
(declare-var main@%_15_0 Bool )
(declare-var main@%_43_0 Int )
(declare-var main@%_30_0 Int )
(declare-var main@%_32_0 Int )
(declare-var main@%_33_0 Int )
(declare-var main@%_34_0 Int )
(declare-var main@%_35_0 Int )
(declare-var main@%_36_0 Int )
(declare-var main@%_37_0 Int )
(declare-var main@%_38_0 Int )
(declare-var main@%_39_0 Int )
(declare-var main@%_40_0 Int )
(declare-var main@%_41_0 Bool )
(declare-var main@%shadow.mem3.4_2 (Array Int Int) )
(declare-var main@%_28_0 Bool )
(declare-var main@%_52_0 Int )
(declare-var main@%_53_0 Int )
(declare-var main@%_54_0 Int )
(declare-var main@%_55_0 Int )
(declare-var main@%_56_0 Int )
(declare-var main@%_57_0 Int )
(declare-var main@%_58_0 Int )
(declare-var main@%_59_0 Int )
(declare-var main@%_60_0 Int )
(declare-var main@%_61_0 Int )
(declare-var main@%_62_0 Int )
(declare-var main@%_63_0 Bool )
(declare-var main@%_76_0 Bool )
(declare-var main@%_69_0 Int )
(declare-var main@%_70_0 Int )
(declare-var main@%_71_0 Bool )
(declare-var main@%_73_0 Bool )
(declare-var main@%_67_0 Bool )
(declare-var main@%_50_0 Bool )
(declare-var main@%shadow.mem.0_2 (Array Int Int) )
(declare-var main@%_26_0 Bool )
(declare-var main@%_13_0 Bool )
(declare-var main@%_0_0 (Array Int Int) )
(declare-var main@%_6_0 Int )
(declare-var @__VERIFIER_nondet_int_0 Int )
(declare-var main@%_8_0 Int )
(declare-var main@%_10_0 Bool )
(declare-var main@%_11_0 Bool )
(declare-var main@%or.cond.i_0 Bool )
(declare-var main@%_2_0 (Array Int Int) )
(declare-var main@%_4_0 (Array Int Int) )
(declare-var main@%_1_0 (Array Int Int) )
(declare-var main@entry_0 Bool )
(declare-var @INFINITY_0 Int )
(declare-var @main.Source_0 Int )
(declare-var @main.Dest_0 Int )
(declare-var @main.Weight_0 Int )
(declare-var main@%_3_0 (Array Int Int) )
(declare-var main@%distance.i_0 Int )
(declare-var main@%_5_0 (Array Int Int) )
(declare-var main@%_7_0 Int )
(declare-var main@%_9_0 Int )
(declare-var main@_bb_0 Bool )
(declare-var main@%shadow.mem3.0_0 (Array Int Int) )
(declare-var main@%i.0.i_0 Int )
(declare-var main@%shadow.mem3.0_1 (Array Int Int) )
(declare-var main@%i.0.i_1 Int )
(declare-var main@_bb5_0 Bool )
(declare-var main@_bb7_0 Bool )
(declare-var main@%_22_0 (Array Int Int) )
(declare-var main@_bb6_0 Bool )
(declare-var main@%_18_0 (Array Int Int) )
(declare-var main@_bb8_0 Bool )
(declare-var main@%shadow.mem3.1_0 (Array Int Int) )
(declare-var main@%shadow.mem3.1_1 (Array Int Int) )
(declare-var main@%_24_0 Int )
(declare-var main@_bb_1 Bool )
(declare-var main@%shadow.mem3.0_2 (Array Int Int) )
(declare-var main@%i.0.i_2 Int )
(declare-var main@_bb9_0 Bool )
(declare-var main@%shadow.mem3.2_0 (Array Int Int) )
(declare-var main@%i.1.i_0 Int )
(declare-var main@%shadow.mem3.2_1 (Array Int Int) )
(declare-var main@%i.1.i_1 Int )
(declare-var main@_bb15_0 Bool )
(declare-var main@%i.2.i_0 Int )
(declare-var main@%i.2.i_1 Int )
(declare-var main@_bb10_0 Bool )
(declare-var main@%shadow.mem3.3_0 (Array Int Int) )
(declare-var main@%j.0.i_0 Int )
(declare-var main@%shadow.mem3.3_1 (Array Int Int) )
(declare-var main@%j.0.i_1 Int )
(declare-var main@_bb16_0 Bool )
(declare-var main@_bb17_0 Bool )
(declare-var main@%_65_0 Int )
(declare-var main@_bb15_1 Bool )
(declare-var main@%i.2.i_2 Int )
(declare-var main@_bb18_0 Bool )
(declare-var main@%shadow.mem.0_0 (Array Int Int) )
(declare-var main@%i.3.i_0 Int )
(declare-var main@%shadow.mem.0_1 (Array Int Int) )
(declare-var main@%i.3.i_1 Int )
(declare-var main@_bb19_0 Bool )
(declare-var main@%_72_0 Int )
(declare-var main@postcall_0 Bool )
(declare-var main@%_74_0 (Array Int Int) )
(declare-var main@%_75_0 Int )
(declare-var main@_bb18_1 Bool )
(declare-var main@%i.3.i_2 Int )
(declare-var main@precall_0 Bool )
(declare-var main@__VERIFIER_assert_0 Bool )
(declare-var main@_bb20_0 Bool )
(declare-var main@verifier.error_0 Bool )
(declare-var main@verifier.error.split_0 Bool )
(declare-var main@_bb14_0 Bool )
(declare-var main@%_48_0 Int )
(declare-var main@%i.1.i_2 Int )
(declare-var main@_bb11_0 Bool )
(declare-var main@%_31_0 Int )
(declare-var main@_bb12_0 Bool )
(declare-var main@%_44_0 (Array Int Int) )
(declare-var main@_bb13_0 Bool )
(declare-var |tuple(main@_bb11_0, main@_bb13_0)| Bool )
(declare-var main@%shadow.mem3.4_0 (Array Int Int) )
(declare-var main@%shadow.mem3.4_1 (Array Int Int) )
(declare-var main@%_46_0 Int )
(declare-var main@_bb10_1 Bool )
(declare-var main@%shadow.mem3.3_2 (Array Int Int) )
(declare-var main@%j.0.i_2 Int )
(rule (verifier.error false false false))
(rule (verifier.error false true true))
(rule (verifier.error true false true))
(rule (verifier.error true true true))
(rule (__VERIFIER_assert
  true
  true
  true
  __VERIFIER_assert@%_4_0
  __VERIFIER_assert@%_call_0
  __VERIFIER_assert@%_3_0
  __VERIFIER_assert@%_2_0
  __VERIFIER_assert@%_2_0
  __VERIFIER_assert@%cond_0))
(rule (__VERIFIER_assert
  false
  true
  true
  __VERIFIER_assert@%_4_0
  __VERIFIER_assert@%_call_0
  __VERIFIER_assert@%_3_0
  __VERIFIER_assert@%_2_0
  __VERIFIER_assert@%_2_0
  __VERIFIER_assert@%cond_0))
(rule (__VERIFIER_assert
  false
  false
  false
  __VERIFIER_assert@%_4_0
  __VERIFIER_assert@%_call_0
  __VERIFIER_assert@%_3_0
  __VERIFIER_assert@%_2_0
  __VERIFIER_assert@%_2_0
  __VERIFIER_assert@%cond_0))
(rule (__VERIFIER_assert@_1
  __VERIFIER_assert@%_4_0
  __VERIFIER_assert@%_call_0
  __VERIFIER_assert@%_3_0
  __VERIFIER_assert@%_2_0
  __VERIFIER_assert@%cond_0))
(rule (=> (and (__VERIFIER_assert@_1
           __VERIFIER_assert@%_4_0
           __VERIFIER_assert@%_call_0
           __VERIFIER_assert@%_3_0
           __VERIFIER_assert@%_2_0
           __VERIFIER_assert@%cond_0)
         true
         (= __VERIFIER_assert@%_call4_0 (= __VERIFIER_assert@%cond_0 0))
         (not __VERIFIER_assert@%_call4_0)
         (=> __VERIFIER_assert@_call5_0
             (and __VERIFIER_assert@_call5_0 __VERIFIER_assert@_1_0))
         __VERIFIER_assert@_call5_0)
    (__VERIFIER_assert@_call5
      __VERIFIER_assert@%_4_0
      __VERIFIER_assert@%_call_0
      __VERIFIER_assert@%_3_0
      __VERIFIER_assert@%_2_0
      __VERIFIER_assert@%cond_0)))
(rule (=> (__VERIFIER_assert@_call5
      __VERIFIER_assert@%_4_0
      __VERIFIER_assert@%_call_0
      __VERIFIER_assert@%_3_0
      __VERIFIER_assert@%_2_0
      __VERIFIER_assert@%cond_0)
    (__VERIFIER_assert
      true
      false
      false
      __VERIFIER_assert@%_4_0
      __VERIFIER_assert@%_call_0
      __VERIFIER_assert@%_3_0
      __VERIFIER_assert@%_2_0
      __VERIFIER_assert@%_2_0
      __VERIFIER_assert@%cond_0)))
(rule (main@entry main@%_2_0
            main@%_4_0
            main@%_1_0
            main@%_0_0
            @__VERIFIER_nondet_int_0))
(rule (let ((a!1 (and (main@entry main@%_2_0
                            main@%_4_0
                            main@%_1_0
                            main@%_0_0
                            @__VERIFIER_nondet_int_0)
                true
                (> main@%distance.i_0 0)
                (= main@%_5_0 (store main@%_0_0 @INFINITY_0 899))
                (= main@%_6_0 @__VERIFIER_nondet_int_0)
                (= main@%_8_0 @__VERIFIER_nondet_int_0)
                (= main@%_10_0 (ite (>= main@%_7_0 0) (< main@%_7_0 5) false))
                (= main@%_11_0 (ite (>= main@%_9_0 0) (< main@%_9_0 20) false))
                (= main@%or.cond.i_0 (and main@%_10_0 main@%_11_0))
                main@%or.cond.i_0
                (=> main@_bb_0 (and main@_bb_0 main@entry_0))
                main@_bb_0
                (=> (and main@_bb_0 main@entry_0)
                    (= main@%shadow.mem3.0_0 main@%_3_0))
                (=> (and main@_bb_0 main@entry_0) (= main@%i.0.i_0 0))
                (=> (and main@_bb_0 main@entry_0)
                    (= main@%shadow.mem3.0_1 main@%shadow.mem3.0_0))
                (=> (and main@_bb_0 main@entry_0)
                    (= main@%i.0.i_1 main@%i.0.i_0)))))
  (=> a!1
      (main@_bb main@%i.0.i_1
                main@%shadow.mem3.0_1
                main@%distance.i_0
                main@%_5_0
                @INFINITY_0
                @main.Dest_0
                main@%_2_0
                @main.Source_0
                main@%_4_0
                @main.Weight_0
                main@%_1_0
                main@%_9_0
                main@%_7_0))))
(rule (let ((a!1 (=> main@_bb7_0
               (= main@%_21_0
                  (+ main@%distance.i_0 (* 0 20) (* main@%i.0.i_0 4)))))
      (a!2 (=> main@_bb6_0
               (= main@%_17_0
                  (+ main@%distance.i_0 (* 0 20) (* main@%i.0.i_0 4))))))
(let ((a!3 (and (main@_bb main@%i.0.i_0
                          main@%shadow.mem3.0_0
                          main@%distance.i_0
                          main@%_5_0
                          @INFINITY_0
                          @main.Dest_0
                          main@%_2_0
                          @main.Source_0
                          main@%_4_0
                          @main.Weight_0
                          main@%_1_0
                          main@%_9_0
                          main@%_7_0)
                true
                (= main@%_13_0 (< main@%i.0.i_0 main@%_7_0))
                (=> main@_bb5_0 (and main@_bb5_0 main@_bb_0))
                (=> (and main@_bb5_0 main@_bb_0) main@%_13_0)
                (=> main@_bb5_0 (= main@%_15_0 (= main@%i.0.i_0 0)))
                (=> main@_bb7_0 (and main@_bb7_0 main@_bb5_0))
                (=> (and main@_bb7_0 main@_bb5_0) (not main@%_15_0))
                (=> main@_bb7_0 (= main@%_20_0 (select main@%_5_0 @INFINITY_0)))
                a!1
                (=> main@_bb7_0
                    (or (<= main@%distance.i_0 0) (> main@%_21_0 0)))
                (=> main@_bb7_0 (> main@%distance.i_0 0))
                (=> main@_bb7_0
                    (= main@%_22_0
                       (store main@%shadow.mem3.0_0 main@%_21_0 main@%_20_0)))
                (=> main@_bb6_0 (and main@_bb6_0 main@_bb5_0))
                (=> (and main@_bb6_0 main@_bb5_0) main@%_15_0)
                a!2
                (=> main@_bb6_0
                    (or (<= main@%distance.i_0 0) (> main@%_17_0 0)))
                (=> main@_bb6_0 (> main@%distance.i_0 0))
                (=> main@_bb6_0
                    (= main@%_18_0 (store main@%shadow.mem3.0_0 main@%_17_0 0)))
                (=> main@_bb8_0
                    (or (and main@_bb8_0 main@_bb7_0)
                        (and main@_bb8_0 main@_bb6_0)))
                (=> (and main@_bb8_0 main@_bb7_0)
                    (= main@%shadow.mem3.1_0 main@%_22_0))
                (=> (and main@_bb8_0 main@_bb6_0)
                    (= main@%shadow.mem3.1_1 main@%_18_0))
                (=> (and main@_bb8_0 main@_bb7_0)
                    (= main@%shadow.mem3.1_2 main@%shadow.mem3.1_0))
                (=> (and main@_bb8_0 main@_bb6_0)
                    (= main@%shadow.mem3.1_2 main@%shadow.mem3.1_1))
                (=> main@_bb8_0 (= main@%_24_0 (+ main@%i.0.i_0 1)))
                (=> main@_bb_1 (and main@_bb_1 main@_bb8_0))
                main@_bb_1
                (=> (and main@_bb_1 main@_bb8_0)
                    (= main@%shadow.mem3.0_1 main@%shadow.mem3.1_2))
                (=> (and main@_bb_1 main@_bb8_0) (= main@%i.0.i_1 main@%_24_0))
                (=> (and main@_bb_1 main@_bb8_0)
                    (= main@%shadow.mem3.0_2 main@%shadow.mem3.0_1))
                (=> (and main@_bb_1 main@_bb8_0)
                    (= main@%i.0.i_2 main@%i.0.i_1)))))
  (=> a!3
      (main@_bb main@%i.0.i_2
                main@%shadow.mem3.0_2
                main@%distance.i_0
                main@%_5_0
                @INFINITY_0
                @main.Dest_0
                main@%_2_0
                @main.Source_0
                main@%_4_0
                @main.Weight_0
                main@%_1_0
                main@%_9_0
                main@%_7_0)))))
(rule (=> (and (main@_bb main@%i.0.i_0
                   main@%shadow.mem3.0_0
                   main@%distance.i_0
                   main@%_5_0
                   @INFINITY_0
                   @main.Dest_0
                   main@%_2_0
                   @main.Source_0
                   main@%_4_0
                   @main.Weight_0
                   main@%_1_0
                   main@%_9_0
                   main@%_7_0)
         true
         (= main@%_13_0 (< main@%i.0.i_0 main@%_7_0))
         (=> main@_bb9_0 (and main@_bb9_0 main@_bb_0))
         main@_bb9_0
         (=> (and main@_bb9_0 main@_bb_0) (not main@%_13_0))
         (=> (and main@_bb9_0 main@_bb_0)
             (= main@%shadow.mem3.2_0 main@%shadow.mem3.0_0))
         (=> (and main@_bb9_0 main@_bb_0) (= main@%i.1.i_0 0))
         (=> (and main@_bb9_0 main@_bb_0)
             (= main@%shadow.mem3.2_1 main@%shadow.mem3.2_0))
         (=> (and main@_bb9_0 main@_bb_0) (= main@%i.1.i_1 main@%i.1.i_0)))
    (main@_bb9 main@%distance.i_0
               main@%_5_0
               @main.Dest_0
               main@%_2_0
               @main.Source_0
               main@%_4_0
               @main.Weight_0
               main@%_1_0
               main@%i.1.i_1
               main@%shadow.mem3.2_1
               main@%_9_0
               main@%_7_0)))
(rule (=> (and (main@_bb9 main@%distance.i_0
                    main@%_5_0
                    @main.Dest_0
                    main@%_2_0
                    @main.Source_0
                    main@%_4_0
                    @main.Weight_0
                    main@%_1_0
                    main@%i.1.i_0
                    main@%shadow.mem3.2_0
                    main@%_9_0
                    main@%_7_0)
         true
         (= main@%_26_0 (< main@%i.1.i_0 main@%_7_0))
         (=> main@_bb15_0 (and main@_bb15_0 main@_bb9_0))
         main@_bb15_0
         (=> (and main@_bb15_0 main@_bb9_0) (not main@%_26_0))
         (=> (and main@_bb15_0 main@_bb9_0) (= main@%i.2.i_0 0))
         (=> (and main@_bb15_0 main@_bb9_0) (= main@%i.2.i_1 main@%i.2.i_0)))
    (main@_bb15 main@%distance.i_0
                main@%_5_0
                @main.Dest_0
                main@%_2_0
                @main.Source_0
                main@%_4_0
                @main.Weight_0
                main@%_1_0
                main@%shadow.mem3.2_0
                main@%_9_0
                main@%i.2.i_1
                main@%_7_0)))
(rule (=> (and (main@_bb9 main@%distance.i_0
                    main@%_5_0
                    @main.Dest_0
                    main@%_2_0
                    @main.Source_0
                    main@%_4_0
                    @main.Weight_0
                    main@%_1_0
                    main@%i.1.i_0
                    main@%shadow.mem3.2_0
                    main@%_9_0
                    main@%_7_0)
         true
         (= main@%_26_0 (< main@%i.1.i_0 main@%_7_0))
         (=> main@_bb10_0 (and main@_bb10_0 main@_bb9_0))
         main@_bb10_0
         (=> (and main@_bb10_0 main@_bb9_0) main@%_26_0)
         (=> (and main@_bb10_0 main@_bb9_0)
             (= main@%shadow.mem3.3_0 main@%shadow.mem3.2_0))
         (=> (and main@_bb10_0 main@_bb9_0) (= main@%j.0.i_0 0))
         (=> (and main@_bb10_0 main@_bb9_0)
             (= main@%shadow.mem3.3_1 main@%shadow.mem3.3_0))
         (=> (and main@_bb10_0 main@_bb9_0) (= main@%j.0.i_1 main@%j.0.i_0)))
    (main@_bb10 main@%distance.i_0
                main@%_5_0
                main@%j.0.i_1
                main@%shadow.mem3.3_1
                @main.Dest_0
                main@%_2_0
                @main.Source_0
                main@%_4_0
                @main.Weight_0
                main@%_1_0
                main@%i.1.i_0
                main@%_9_0
                main@%_7_0)))
(rule (let ((a!1 (=> main@_bb16_0
               (= main@%_52_0 (+ @main.Dest_0 (* 0 80) (* main@%i.2.i_0 4)))))
      (a!2 (=> main@_bb16_0
               (= main@%_54_0 (+ @main.Source_0 (* 0 80) (* main@%i.2.i_0 4)))))
      (a!3 (= main@%_56_0 (+ (+ main@%distance.i_0 (* 0 20)) (* main@%_53_0 4))))
      (a!4 (= main@%_58_0 (+ (+ main@%distance.i_0 (* 0 20)) (* main@%_55_0 4))))
      (a!5 (=> main@_bb16_0
               (= main@%_60_0 (+ @main.Weight_0 (* 0 80) (* main@%i.2.i_0 4))))))
(let ((a!6 (and (main@_bb15 main@%distance.i_0
                            main@%_5_0
                            @main.Dest_0
                            main@%_2_0
                            @main.Source_0
                            main@%_4_0
                            @main.Weight_0
                            main@%_1_0
                            main@%shadow.mem3.2_0
                            main@%_9_0
                            main@%i.2.i_0
                            main@%_7_0)
                true
                (= main@%_50_0 (< main@%i.2.i_0 main@%_9_0))
                (=> main@_bb16_0 (and main@_bb16_0 main@_bb15_0))
                (=> (and main@_bb16_0 main@_bb15_0) main@%_50_0)
                a!1
                (=> main@_bb16_0 (or (<= @main.Dest_0 0) (> main@%_52_0 0)))
                (=> main@_bb16_0 (> @main.Dest_0 0))
                (=> main@_bb16_0
                    (= main@%_53_0 (select main@%_2_0 main@%_52_0)))
                a!2
                (=> main@_bb16_0 (or (<= @main.Source_0 0) (> main@%_54_0 0)))
                (=> main@_bb16_0 (> @main.Source_0 0))
                (=> main@_bb16_0
                    (= main@%_55_0 (select main@%_4_0 main@%_54_0)))
                (=> main@_bb16_0 a!3)
                (=> main@_bb16_0
                    (or (<= main@%distance.i_0 0) (> main@%_56_0 0)))
                (=> main@_bb16_0 (> main@%distance.i_0 0))
                (=> main@_bb16_0
                    (= main@%_57_0 (select main@%shadow.mem3.2_0 main@%_56_0)))
                (=> main@_bb16_0 a!4)
                (=> main@_bb16_0
                    (or (<= main@%distance.i_0 0) (> main@%_58_0 0)))
                (=> main@_bb16_0 (> main@%distance.i_0 0))
                (=> main@_bb16_0
                    (= main@%_59_0 (select main@%shadow.mem3.2_0 main@%_58_0)))
                a!5
                (=> main@_bb16_0 (or (<= @main.Weight_0 0) (> main@%_60_0 0)))
                (=> main@_bb16_0 (> @main.Weight_0 0))
                (=> main@_bb16_0
                    (= main@%_61_0 (select main@%_1_0 main@%_60_0)))
                (=> main@_bb16_0 (= main@%_62_0 (+ main@%_59_0 main@%_61_0)))
                (=> main@_bb16_0 (= main@%_63_0 (> main@%_57_0 main@%_62_0)))
                (=> main@_bb16_0 (not main@%_63_0))
                (=> main@_bb17_0 (and main@_bb17_0 main@_bb16_0))
                (=> main@_bb17_0 (= main@%_65_0 (+ main@%i.2.i_0 1)))
                (=> main@_bb15_1 (and main@_bb15_1 main@_bb17_0))
                main@_bb15_1
                (=> (and main@_bb15_1 main@_bb17_0)
                    (= main@%i.2.i_1 main@%_65_0))
                (=> (and main@_bb15_1 main@_bb17_0)
                    (= main@%i.2.i_2 main@%i.2.i_1)))))
  (=> a!6
      (main@_bb15 main@%distance.i_0
                  main@%_5_0
                  @main.Dest_0
                  main@%_2_0
                  @main.Source_0
                  main@%_4_0
                  @main.Weight_0
                  main@%_1_0
                  main@%shadow.mem3.2_0
                  main@%_9_0
                  main@%i.2.i_2
                  main@%_7_0)))))
(rule (=> (and (main@_bb15 main@%distance.i_0
                     main@%_5_0
                     @main.Dest_0
                     main@%_2_0
                     @main.Source_0
                     main@%_4_0
                     @main.Weight_0
                     main@%_1_0
                     main@%shadow.mem3.2_0
                     main@%_9_0
                     main@%i.2.i_0
                     main@%_7_0)
         true
         (= main@%_50_0 (< main@%i.2.i_0 main@%_9_0))
         (=> main@_bb18_0 (and main@_bb18_0 main@_bb15_0))
         main@_bb18_0
         (=> (and main@_bb18_0 main@_bb15_0) (not main@%_50_0))
         (=> (and main@_bb18_0 main@_bb15_0)
             (= main@%shadow.mem.0_0 main@%_5_0))
         (=> (and main@_bb18_0 main@_bb15_0) (= main@%i.3.i_0 0))
         (=> (and main@_bb18_0 main@_bb15_0)
             (= main@%shadow.mem.0_1 main@%shadow.mem.0_0))
         (=> (and main@_bb18_0 main@_bb15_0) (= main@%i.3.i_1 main@%i.3.i_0)))
    (main@_bb18 main@%distance.i_0
                main@%_2_0
                main@%_4_0
                main@%_1_0
                main@%shadow.mem3.2_0
                main@%shadow.mem.0_1
                main@%i.3.i_1
                main@%_7_0)))
(rule (let ((a!1 (=> main@_bb19_0
               (= main@%_69_0
                  (+ main@%distance.i_0 (* 0 20) (* main@%i.3.i_0 4))))))
(let ((a!2 (and (main@_bb18 main@%distance.i_0
                            main@%_2_0
                            main@%_4_0
                            main@%_1_0
                            main@%shadow.mem3.2_0
                            main@%shadow.mem.0_0
                            main@%i.3.i_0
                            main@%_7_0)
                true
                (= main@%_67_0 (< main@%i.3.i_0 main@%_7_0))
                main@%_67_0
                (=> main@_bb19_0 (and main@_bb19_0 main@_bb18_0))
                a!1
                (=> main@_bb19_0
                    (or (<= main@%distance.i_0 0) (> main@%_69_0 0)))
                (=> main@_bb19_0 (> main@%distance.i_0 0))
                (=> main@_bb19_0
                    (= main@%_70_0 (select main@%shadow.mem3.2_0 main@%_69_0)))
                (=> main@_bb19_0 (= main@%_71_0 (> main@%_70_0 (- 1))))
                (=> main@_bb19_0 (= main@%_72_0 (ite main@%_71_0 1 0)))
                (=> main@postcall_0 (and main@postcall_0 main@_bb19_0))
                (=> (and main@postcall_0 main@_bb19_0) main@%_73_0)
                (__VERIFIER_assert
                  main@postcall_0
                  false
                  false
                  main@%_2_0
                  main@%_4_0
                  main@%_1_0
                  main@%shadow.mem.0_0
                  main@%_74_0
                  main@%_72_0)
                (=> main@postcall_0 (= main@%_75_0 (+ main@%i.3.i_0 1)))
                (=> main@_bb18_1 (and main@_bb18_1 main@postcall_0))
                main@_bb18_1
                (=> (and main@_bb18_1 main@postcall_0)
                    (= main@%shadow.mem.0_1 main@%_74_0))
                (=> (and main@_bb18_1 main@postcall_0)
                    (= main@%i.3.i_1 main@%_75_0))
                (=> (and main@_bb18_1 main@postcall_0)
                    (= main@%shadow.mem.0_2 main@%shadow.mem.0_1))
                (=> (and main@_bb18_1 main@postcall_0)
                    (= main@%i.3.i_2 main@%i.3.i_1)))))
  (=> a!2
      (main@_bb18 main@%distance.i_0
                  main@%_2_0
                  main@%_4_0
                  main@%_1_0
                  main@%shadow.mem3.2_0
                  main@%shadow.mem.0_2
                  main@%i.3.i_2
                  main@%_7_0)))))
(rule (let ((a!1 (=> main@_bb19_0
               (= main@%_69_0
                  (+ main@%distance.i_0 (* 0 20) (* main@%i.3.i_0 4))))))
(let ((a!2 (and (main@_bb18 main@%distance.i_0
                            main@%_2_0
                            main@%_4_0
                            main@%_1_0
                            main@%shadow.mem3.2_0
                            main@%shadow.mem.0_0
                            main@%i.3.i_0
                            main@%_7_0)
                true
                (= main@%_67_0 (< main@%i.3.i_0 main@%_7_0))
                main@%_67_0
                (=> main@_bb19_0 (and main@_bb19_0 main@_bb18_0))
                a!1
                (=> main@_bb19_0
                    (or (<= main@%distance.i_0 0) (> main@%_69_0 0)))
                (=> main@_bb19_0 (> main@%distance.i_0 0))
                (=> main@_bb19_0
                    (= main@%_70_0 (select main@%shadow.mem3.2_0 main@%_69_0)))
                (=> main@_bb19_0 (= main@%_71_0 (> main@%_70_0 (- 1))))
                (=> main@_bb19_0 (= main@%_72_0 (ite main@%_71_0 1 0)))
                (=> main@precall_0 (and main@precall_0 main@_bb19_0))
                (=> (and main@precall_0 main@_bb19_0) (not main@%_73_0))
                (=> main@__VERIFIER_assert_0
                    (and main@__VERIFIER_assert_0 main@precall_0))
                (=> main@__VERIFIER_assert_0 (= main@%_76_0 (= main@%_72_0 0)))
                (=> main@__VERIFIER_assert_0 main@%_76_0)
                (=> main@_bb20_0 (and main@_bb20_0 main@__VERIFIER_assert_0))
                (=> main@verifier.error_0
                    (and main@verifier.error_0 main@_bb20_0))
                (=> main@verifier.error.split_0
                    (and main@verifier.error.split_0 main@verifier.error_0))
                main@verifier.error.split_0)))
  (=> a!2 main@verifier.error.split))))
(rule (let ((a!1 (and (main@_bb10 main@%distance.i_0
                            main@%_5_0
                            main@%j.0.i_0
                            main@%shadow.mem3.3_0
                            @main.Dest_0
                            main@%_2_0
                            @main.Source_0
                            main@%_4_0
                            @main.Weight_0
                            main@%_1_0
                            main@%i.1.i_0
                            main@%_9_0
                            main@%_7_0)
                true
                (= main@%_28_0 (< main@%j.0.i_0 main@%_9_0))
                (=> main@_bb14_0 (and main@_bb14_0 main@_bb10_0))
                (=> (and main@_bb14_0 main@_bb10_0) (not main@%_28_0))
                (=> main@_bb14_0 (= main@%_48_0 (+ main@%i.1.i_0 1)))
                (=> main@_bb9_0 (and main@_bb9_0 main@_bb14_0))
                main@_bb9_0
                (=> (and main@_bb9_0 main@_bb14_0)
                    (= main@%shadow.mem3.2_0 main@%shadow.mem3.3_0))
                (=> (and main@_bb9_0 main@_bb14_0)
                    (= main@%i.1.i_1 main@%_48_0))
                (=> (and main@_bb9_0 main@_bb14_0)
                    (= main@%shadow.mem3.2_1 main@%shadow.mem3.2_0))
                (=> (and main@_bb9_0 main@_bb14_0)
                    (= main@%i.1.i_2 main@%i.1.i_1)))))
  (=> a!1
      (main@_bb9 main@%distance.i_0
                 main@%_5_0
                 @main.Dest_0
                 main@%_2_0
                 @main.Source_0
                 main@%_4_0
                 @main.Weight_0
                 main@%_1_0
                 main@%i.1.i_2
                 main@%shadow.mem3.2_1
                 main@%_9_0
                 main@%_7_0))))
(rule (let ((a!1 (=> main@_bb11_0
               (= main@%_30_0 (+ @main.Dest_0 (* 0 80) (* main@%j.0.i_0 4)))))
      (a!2 (=> main@_bb11_0
               (= main@%_32_0 (+ @main.Source_0 (* 0 80) (* main@%j.0.i_0 4)))))
      (a!3 (= main@%_34_0 (+ (+ main@%distance.i_0 (* 0 20)) (* main@%_31_0 4))))
      (a!4 (= main@%_36_0 (+ (+ main@%distance.i_0 (* 0 20)) (* main@%_33_0 4))))
      (a!5 (=> main@_bb11_0
               (= main@%_38_0 (+ @main.Weight_0 (* 0 80) (* main@%j.0.i_0 4)))))
      (a!6 (= main@%_43_0 (+ (+ main@%distance.i_0 (* 0 20)) (* main@%_31_0 4)))))
(let ((a!7 (and (main@_bb10 main@%distance.i_0
                            main@%_5_0
                            main@%j.0.i_0
                            main@%shadow.mem3.3_0
                            @main.Dest_0
                            main@%_2_0
                            @main.Source_0
                            main@%_4_0
                            @main.Weight_0
                            main@%_1_0
                            main@%i.1.i_0
                            main@%_9_0
                            main@%_7_0)
                true
                (= main@%_28_0 (< main@%j.0.i_0 main@%_9_0))
                (=> main@_bb11_0 (and main@_bb11_0 main@_bb10_0))
                (=> (and main@_bb11_0 main@_bb10_0) main@%_28_0)
                a!1
                (=> main@_bb11_0 (or (<= @main.Dest_0 0) (> main@%_30_0 0)))
                (=> main@_bb11_0 (> @main.Dest_0 0))
                (=> main@_bb11_0
                    (= main@%_31_0 (select main@%_2_0 main@%_30_0)))
                a!2
                (=> main@_bb11_0 (or (<= @main.Source_0 0) (> main@%_32_0 0)))
                (=> main@_bb11_0 (> @main.Source_0 0))
                (=> main@_bb11_0
                    (= main@%_33_0 (select main@%_4_0 main@%_32_0)))
                (=> main@_bb11_0 a!3)
                (=> main@_bb11_0
                    (or (<= main@%distance.i_0 0) (> main@%_34_0 0)))
                (=> main@_bb11_0 (> main@%distance.i_0 0))
                (=> main@_bb11_0
                    (= main@%_35_0 (select main@%shadow.mem3.3_0 main@%_34_0)))
                (=> main@_bb11_0 a!4)
                (=> main@_bb11_0
                    (or (<= main@%distance.i_0 0) (> main@%_36_0 0)))
                (=> main@_bb11_0 (> main@%distance.i_0 0))
                (=> main@_bb11_0
                    (= main@%_37_0 (select main@%shadow.mem3.3_0 main@%_36_0)))
                a!5
                (=> main@_bb11_0 (or (<= @main.Weight_0 0) (> main@%_38_0 0)))
                (=> main@_bb11_0 (> @main.Weight_0 0))
                (=> main@_bb11_0
                    (= main@%_39_0 (select main@%_1_0 main@%_38_0)))
                (=> main@_bb11_0 (= main@%_40_0 (+ main@%_37_0 main@%_39_0)))
                (=> main@_bb11_0 (= main@%_41_0 (> main@%_35_0 main@%_40_0)))
                (=> main@_bb12_0 (and main@_bb12_0 main@_bb11_0))
                (=> (and main@_bb12_0 main@_bb11_0) main@%_41_0)
                (=> main@_bb12_0 a!6)
                (=> main@_bb12_0
                    (or (<= main@%distance.i_0 0) (> main@%_43_0 0)))
                (=> main@_bb12_0 (> main@%distance.i_0 0))
                (=> main@_bb12_0
                    (= main@%_44_0
                       (store main@%shadow.mem3.3_0 main@%_43_0 (- 1))))
                (=> |tuple(main@_bb11_0, main@_bb13_0)| main@_bb11_0)
                (=> main@_bb13_0
                    (or (and main@_bb13_0 main@_bb12_0)
                        (and main@_bb11_0 |tuple(main@_bb11_0, main@_bb13_0)|)))
                (=> (and main@_bb13_0 main@_bb12_0)
                    (= main@%shadow.mem3.4_0 main@%_44_0))
                (=> (and main@_bb11_0 |tuple(main@_bb11_0, main@_bb13_0)|)
                    (not main@%_41_0))
                (=> (and main@_bb11_0 |tuple(main@_bb11_0, main@_bb13_0)|)
                    (= main@%shadow.mem3.4_1 main@%shadow.mem3.3_0))
                (=> (and main@_bb13_0 main@_bb12_0)
                    (= main@%shadow.mem3.4_2 main@%shadow.mem3.4_0))
                (=> (and main@_bb11_0 |tuple(main@_bb11_0, main@_bb13_0)|)
                    (= main@%shadow.mem3.4_2 main@%shadow.mem3.4_1))
                (=> main@_bb13_0 (= main@%_46_0 (+ main@%j.0.i_0 1)))
                (=> main@_bb10_1 (and main@_bb10_1 main@_bb13_0))
                main@_bb10_1
                (=> (and main@_bb10_1 main@_bb13_0)
                    (= main@%shadow.mem3.3_1 main@%shadow.mem3.4_2))
                (=> (and main@_bb10_1 main@_bb13_0)
                    (= main@%j.0.i_1 main@%_46_0))
                (=> (and main@_bb10_1 main@_bb13_0)
                    (= main@%shadow.mem3.3_2 main@%shadow.mem3.3_1))
                (=> (and main@_bb10_1 main@_bb13_0)
                    (= main@%j.0.i_2 main@%j.0.i_1)))))
  (=> a!7
      (main@_bb10 main@%distance.i_0
                  main@%_5_0
                  main@%j.0.i_2
                  main@%shadow.mem3.3_2
                  @main.Dest_0
                  main@%_2_0
                  @main.Source_0
                  main@%_4_0
                  @main.Weight_0
                  main@%_1_0
                  main@%i.1.i_0
                  main@%_9_0
                  main@%_7_0)))))
(query main@verifier.error.split)

